7662 3671 6403
8693 6434 4234
8479 4302 6061
8167 6531 4142
8083 5932 5069
7680 5554 5528
7557 6029 4977
7665 5763 5354
7362 5842 5270
8934 5179 5242
8717 4322 5972
7923 4942 6033
7938 4733 6207
9089 4804 5226
